10
0   678   724   456   542   518   941   946   0   30   
678   0   687   696   887   1107   215   1407   783   928   
724   687   0   959   861   451   607   1105   669   441   
456   696   959   0   81   456   200   480   522   429   
542   887   861   81   0   681   130   579   511   479   
518   1107   451   456   681   0   623   537   1274   21   
941   215   607   200   130   623   0   1457   1303   856   
946   1407   1105   480   579   537   1457   0   518   594   
0   783   669   522   511   1274   1303   518   0   107   
30   928   441   429   479   21   856   594   107   0   
0   0   0   279   1575   0   0   5   0   598   
65   0   91   17   0   33   2   0   0   0   
91   13   0   0   0   0   2   0   2   0   
0   0   0   0   1441   0   0   57   537   0   
5937   6   0   0   0   0   0   0   7   1   
46   0   0   0   0   0   0   0   8   5770   
5826   0   2   1124   101   0   0   0   1   0   
11   27   1457   0   6   2   731   0   5   1   
0   0   110   294   1   0   335   0   0   0   
0   5   1   3784   0   39   0   5368   0   0   
